language ESSENCE' 1.0

letting jobs = 102
letting horizon = 805
letting resourcesRenew = 2
letting resourcesNonrenew = 2
letting resourceLimits = [24, 23, 298, 291]
letting successors = [[2, 3, 4, 5, 6, 7, 8, 9, 13, 16], [27, 23, 20, 17, 14, 12, 11], [27, 23, 21, 19, 18, 14, 12], [23, 20, 17, 14, 12, 10], [23, 22, 21, 18, 15, 14], [17, 14, 10], [35, 31, 28, 27, 26, 25, 24, 23, 21], [31, 27, 26, 23, 22, 15], [35, 27, 26, 25, 21, 18], [40, 35, 33, 32, 31, 29, 28, 27, 26, 25, 24], [35, 32, 25, 24, 22, 18], [37, 35, 33, 32, 31, 29, 26, 25, 24, 22], [34, 28, 25, 17], [40, 35, 32, 31, 29, 25, 24], [40, 37, 35, 33, 29, 25, 24], [39, 38, 37, 36, 35, 34, 33, 32, 30, 28], [37, 33, 32, 31, 29, 22], [43, 41, 39, 38, 37, 34, 33, 31, 29, 28], [43, 41, 40, 39, 33, 29, 25], [55, 51, 44, 42, 41, 38, 37, 36, 34, 30], [63, 40, 39, 38, 36, 32], [63, 51, 49, 43, 41, 40, 39, 38], [51, 44, 41, 38, 30, 29], [51, 41, 39, 38, 36, 34], [55, 51, 47, 45, 42, 36, 30], [55, 43, 39, 38, 36], [55, 39, 37, 30], [63, 55, 52, 51, 50, 48, 47, 46, 44], [55, 52, 49, 45, 42], [67, 63, 52, 50, 49, 48, 46], [67, 55, 52, 50, 49, 46, 45], [55, 52, 43, 41], [67, 58, 56, 55, 53, 52, 51, 49, 47], [67, 63, 53, 52, 50, 47, 46], [67, 52, 49, 47, 46, 43], [67, 53, 52, 50, 49, 46], [67, 56, 52, 49, 48, 47], [67, 52, 50, 48, 47], [67, 46, 44], [67, 59, 55, 53, 52, 50], [67, 56, 47, 46], [67, 63, 57, 53, 46], [59, 58, 57, 56, 54, 53], [45], [59, 56, 54, 53], [74, 69, 65, 61, 60, 58, 54], [74, 60, 59, 57, 54], [58, 57, 53], [74, 64, 60, 59, 57], [74, 64, 62, 61, 60, 56], [66, 65, 64, 62, 60, 57], [74, 66, 65, 64, 57], [74, 68, 66, 64, 62, 61, 60], [80, 71, 70, 68, 66, 62], [86, 80, 74, 72, 71, 68, 66], [86, 77, 73, 72, 71, 69, 65], [80, 73, 71, 69, 61], [86, 75, 72, 68, 64], [86, 66, 65], [93, 86, 80, 78, 75, 73, 71], [92, 87, 86, 77, 76, 72, 70], [93, 92, 86, 77, 76, 73, 72], [87, 84, 79, 76, 75, 74, 70], [93, 92, 85, 78, 77, 76, 73], [92, 84, 79, 76, 75, 68], [83, 78, 77, 75, 73], [101, 92, 91, 88, 86, 85, 84, 82, 79], [93, 91, 88, 87, 83, 82, 81, 78], [92, 91, 89, 88, 85, 76], [93, 88, 85, 83, 82, 81, 78], [92, 91, 89, 84, 76], [91, 88, 82, 79, 78], [101, 89, 88, 87, 84, 79], [101, 100, 92, 91, 88, 82, 81], [101, 91, 88, 85, 82, 81], [101, 97, 83, 82, 81], [100, 99, 98, 91, 84], [101, 98, 97, 96, 90, 89], [100, 97, 81], [100, 98, 96, 90, 89], [99, 98, 96, 95, 94], [99, 96, 94, 90], [100, 98, 90], [96, 94, 90], [97, 94, 90], [96, 94, 90], [94, 90], [96, 94], [95, 94], [95], [95], [94], [94], [102], [102], [102], [102], [102], [102], [102], [102], []]
letting durations = [[0], [2, 3, 6], [7, 7, 10], [2, 2, 5], [5, 6, 7], [1, 4, 9], [1, 2, 8], [1, 2, 4], [4, 4, 5], [1, 6, 10], [1, 2, 8], [1, 3, 9], [1, 6, 10], [2, 6, 7], [3, 4, 5], [4, 6, 10], [5, 7, 8], [2, 5, 9], [5, 5, 10], [3, 5, 7], [2, 5, 10], [5, 6, 6], [1, 7, 7], [4, 4, 9], [3, 5, 9], [5, 7, 10], [3, 9, 9], [2, 3, 8], [5, 7, 10], [1, 9, 10], [1, 3, 8], [1, 7, 9], [1, 3, 6], [2, 4, 7], [2, 6, 8], [1, 1, 3], [2, 2, 9], [1, 9, 10], [8, 9, 10], [2, 9, 10], [3, 7, 8], [5, 8, 10], [1, 7, 7], [4, 7, 9], [3, 6, 10], [6, 6, 9], [1, 6, 7], [6, 9, 10], [1, 4, 8], [2, 7, 9], [1, 6, 7], [1, 6, 7], [3, 4, 7], [1, 6, 7], [2, 5, 10], [1, 3, 10], [3, 4, 4], [1, 2, 6], [7, 7, 9], [1, 6, 7], [1, 1, 3], [7, 9, 10], [5, 6, 7], [1, 5, 10], [1, 3, 4], [3, 3, 10], [5, 7, 8], [4, 5, 8], [4, 8, 9], [2, 6, 10], [5, 7, 8], [4, 5, 8], [1, 2, 7], [5, 5, 9], [3, 7, 9], [6, 8, 8], [9, 9, 10], [2, 8, 10], [2, 4, 5], [1, 8, 9], [2, 4, 7], [1, 8, 9], [1, 5, 10], [2, 6, 9], [1, 3, 3], [5, 10, 10], [1, 4, 7], [5, 7, 9], [1, 1, 8], [3, 5, 6], [9, 10, 10], [2, 2, 9], [1, 4, 8], [5, 6, 9], [4, 6, 10], [2, 4, 5], [7, 7, 9], [1, 3, 5], [1, 4, 6], [3, 3, 10], [3, 4, 8], [0]]
letting resourceUsage = [[[0, 0, 0, 0]], [[4, 0, 4, 0], [3, 0, 2, 0], [2, 0, 0, 6]], [[0, 3, 0, 8], [1, 0, 6, 0], [0, 1, 0, 6]], [[0, 3, 0, 5], [2, 0, 7, 0], [0, 3, 0, 4]], [[0, 4, 4, 0], [0, 4, 0, 6], [0, 4, 1, 0]], [[2, 0, 0, 4], [1, 0, 3, 0], [0, 3, 2, 0]], [[1, 0, 0, 7], [0, 1, 5, 0], [1, 0, 0, 3]], [[0, 4, 6, 0], [0, 4, 0, 3], [0, 4, 0, 2]], [[5, 0, 10, 0], [0, 4, 9, 0], [0, 3, 8, 0]], [[2, 0, 2, 0], [2, 0, 0, 8], [2, 0, 0, 7]], [[2, 0, 0, 10], [0, 3, 9, 0], [0, 2, 7, 0]], [[0, 3, 9, 0], [0, 3, 8, 0], [3, 0, 8, 0]], [[0, 5, 0, 10], [0, 3, 0, 8], [2, 0, 0, 8]], [[0, 3, 4, 0], [0, 2, 4, 0], [0, 2, 3, 0]], [[0, 1, 7, 0], [0, 1, 0, 6], [0, 1, 0, 5]], [[2, 0, 0, 8], [0, 2, 0, 6], [1, 0, 4, 0]], [[3, 0, 0, 6], [0, 3, 8, 0], [0, 2, 0, 5]], [[0, 5, 6, 0], [4, 0, 6, 0], [0, 5, 0, 3]], [[0, 4, 0, 7], [3, 0, 3, 0], [3, 0, 2, 0]], [[0, 5, 0, 8], [3, 0, 0, 6], [0, 5, 0, 3]], [[3, 0, 6, 0], [3, 0, 5, 0], [0, 1, 0, 5]], [[0, 3, 0, 5], [3, 0, 0, 3], [0, 1, 0, 1]], [[0, 5, 4, 0], [2, 0, 0, 4], [2, 0, 4, 0]], [[3, 0, 0, 3], [0, 3, 0, 2], [3, 0, 4, 0]], [[0, 1, 0, 7], [0, 1, 3, 0], [5, 0, 2, 0]], [[4, 0, 4, 0], [0, 4, 3, 0], [0, 4, 0, 8]], [[3, 0, 7, 0], [0, 1, 0, 3], [2, 0, 5, 0]], [[0, 3, 6, 0], [0, 2, 5, 0], [3, 0, 0, 6]], [[0, 3, 6, 0], [2, 0, 5, 0], [0, 2, 2, 0]], [[0, 3, 7, 0], [3, 0, 4, 0], [3, 0, 0, 2]], [[0, 3, 7, 0], [0, 2, 0, 6], [0, 1, 6, 0]], [[5, 0, 0, 5], [0, 3, 3, 0], [0, 2, 2, 0]], [[0, 3, 0, 5], [0, 3, 0, 3], [1, 0, 3, 0]], [[0, 5, 6, 0], [0, 4, 0, 6], [4, 0, 0, 4]], [[0, 5, 9, 0], [0, 3, 0, 2], [4, 0, 5, 0]], [[1, 0, 0, 7], [0, 3, 8, 0], [0, 3, 5, 0]], [[0, 2, 3, 0], [1, 0, 0, 8], [0, 2, 1, 0]], [[4, 0, 0, 7], [4, 0, 3, 0], [0, 1, 0, 1]], [[0, 5, 0, 7], [0, 3, 0, 6], [0, 3, 5, 0]], [[0, 4, 0, 5], [3, 0, 0, 4], [0, 2, 7, 0]], [[4, 0, 7, 0], [0, 2, 5, 0], [0, 2, 0, 6]], [[3, 0, 4, 0], [2, 0, 0, 6], [2, 0, 0, 5]], [[0, 3, 0, 8], [4, 0, 0, 7], [4, 0, 1, 0]], [[0, 4, 0, 8], [0, 4, 0, 6], [0, 3, 1, 0]], [[0, 3, 6, 0], [0, 3, 5, 0], [0, 3, 0, 3]], [[0, 2, 0, 7], [4, 0, 3, 0], [4, 0, 0, 4]], [[0, 4, 10, 0], [0, 4, 0, 6], [0, 4, 0, 5]], [[0, 2, 7, 0], [0, 1, 0, 7], [0, 1, 5, 0]], [[4, 0, 0, 8], [4, 0, 0, 4], [0, 1, 5, 0]], [[0, 2, 0, 7], [4, 0, 0, 7], [3, 0, 0, 7]], [[1, 0, 4, 0], [0, 2, 0, 6], [1, 0, 3, 0]], [[1, 0, 0, 3], [0, 3, 9, 0], [0, 1, 0, 3]], [[0, 1, 7, 0], [3, 0, 6, 0], [0, 1, 4, 0]], [[4, 0, 0, 7], [0, 3, 5, 0], [4, 0, 5, 0]], [[5, 0, 8, 0], [0, 2, 0, 4], [1, 0, 5, 0]], [[1, 0, 7, 0], [1, 0, 5, 0], [1, 0, 0, 7]], [[0, 3, 0, 10], [0, 3, 5, 0], [1, 0, 5, 0]], [[2, 0, 0, 10], [0, 3, 0, 6], [0, 3, 6, 0]], [[0, 4, 0, 10], [3, 0, 0, 10], [3, 0, 0, 9]], [[4, 0, 5, 0], [0, 2, 0, 6], [0, 2, 3, 0]], [[4, 0, 7, 0], [0, 4, 0, 7], [0, 3, 0, 7]], [[5, 0, 4, 0], [4, 0, 0, 7], [0, 2, 0, 7]], [[0, 5, 0, 6], [0, 4, 4, 0], [0, 2, 0, 3]], [[0, 1, 0, 10], [2, 0, 7, 0], [0, 1, 0, 8]], [[0, 4, 2, 0], [0, 4, 1, 0], [1, 0, 0, 9]], [[0, 4, 0, 5], [1, 0, 7, 0], [0, 2, 0, 1]], [[2, 0, 10, 0], [0, 3, 0, 5], [2, 0, 0, 4]], [[0, 1, 5, 0], [2, 0, 0, 1], [0, 1, 4, 0]], [[3, 0, 10, 0], [3, 0, 0, 3], [0, 1, 7, 0]], [[1, 0, 7, 0], [1, 0, 0, 8], [0, 1, 7, 0]], [[3, 0, 10, 0], [2, 0, 0, 7], [2, 0, 10, 0]], [[3, 0, 0, 8], [2, 0, 0, 6], [0, 1, 7, 0]], [[0, 3, 4, 0], [2, 0, 3, 0], [1, 0, 3, 0]], [[0, 4, 8, 0], [2, 0, 7, 0], [0, 2, 4, 0]], [[3, 0, 7, 0], [3, 0, 5, 0], [3, 0, 4, 0]], [[4, 0, 0, 9], [4, 0, 6, 0], [0, 3, 4, 0]], [[3, 0, 8, 0], [0, 4, 0, 5], [0, 2, 0, 4]], [[3, 0, 0, 5], [1, 0, 0, 5], [1, 0, 2, 0]], [[0, 4, 4, 0], [2, 0, 0, 6], [2, 0, 0, 4]], [[0, 2, 0, 9], [0, 1, 0, 9], [2, 0, 7, 0]], [[1, 0, 0, 9], [0, 4, 0, 8], [0, 4, 0, 7]], [[1, 0, 9, 0], [0, 2, 0, 7], [0, 2, 0, 1]], [[4, 0, 0, 8], [3, 0, 8, 0], [2, 0, 0, 7]], [[0, 4, 0, 4], [0, 4, 7, 0], [3, 0, 4, 0]], [[4, 0, 9, 0], [0, 2, 0, 5], [2, 0, 2, 0]], [[0, 2, 0, 7], [0, 2, 5, 0], [0, 2, 0, 6]], [[4, 0, 3, 0], [4, 0, 2, 0], [4, 0, 1, 0]], [[3, 0, 5, 0], [3, 0, 4, 0], [2, 0, 3, 0]], [[0, 3, 0, 7], [5, 0, 2, 0], [5, 0, 1, 0]], [[2, 0, 6, 0], [0, 3, 6, 0], [0, 3, 5, 0]], [[0, 2, 0, 9], [0, 2, 0, 8], [3, 0, 6, 0]], [[3, 0, 0, 3], [0, 2, 4, 0], [2, 0, 2, 0]], [[2, 0, 0, 6], [0, 1, 0, 5], [2, 0, 0, 4]], [[4, 0, 9, 0], [0, 1, 8, 0], [0, 1, 6, 0]], [[3, 0, 9, 0], [0, 2, 0, 3], [2, 0, 9, 0]], [[1, 0, 9, 0], [0, 1, 0, 7], [0, 1, 7, 0]], [[4, 0, 0, 4], [0, 4, 4, 0], [0, 4, 3, 0]], [[0, 4, 9, 0], [2, 0, 6, 0], [0, 3, 4, 0]], [[1, 0, 3, 0], [1, 0, 0, 6], [0, 2, 0, 6]], [[0, 2, 4, 0], [0, 1, 0, 8], [0, 1, 4, 0]], [[2, 0, 0, 3], [2, 0, 2, 0], [0, 3, 1, 0]], [[0, 0, 0, 0]]]
